21083
0 0 1 0 1 1 1 0 0 0 0 1 0 0 0 1 0 1 0 0 1 0 0 0 0 0 1 0 0 0 
20 5 6 2 6 5 4 5 4 11 26 20 4 20 4 20 17 17 5 11 4 4 26 4 26 20 2 11 5 26 4 5 6 5 20 20 11 15 4 11 17 20 15 6 15 11 26 20 5 20 4 4 11 5 6 20 11 4 4 20 11 5 20 5 11 11 15 11 26 26 6 6 11 17 15 20 26 20 4 15 20 17 20 11 4 17 2 4 20 4 2 15 2 17 17 15 2 6 4 6 4 2 11 11 2 5 4 17 20 20 11 4 2 11 11 26 11 15 11 5 11 4 5 20 6 4 5 26 4 26 11 4 11 26 4 20 4 5 20 17 11 20 20 11 20 4 11 5 2 5 